p cnf 164 474
1 -2 0
1 -3 0
2 3 -1 0
4 -1 0
1 -4 0
5 -1 0
1 -5 0
6 -7 0
6 -8 0
6 -9 0
6 -10 0
6 -11 0
6 -12 0
6 -13 0
14 0
15 -6 0
6 -15 0
-8 16 0
-9 16 0
-10 16 0
-11 16 0
-12 16 0
-13 16 0
17 0
18 -16 0
16 -18 0
-9 19 0
-10 19 0
-11 19 0
-12 19 0
-13 19 0
9 10 11 12 13 -19 0
20 -19 0
19 -20 0
-10 21 0
-11 21 0
-12 21 0
-13 21 0
10 11 12 13 -21 0
22 -21 0
21 -22 0
23 -21 0
21 -23 0
24 -21 0
21 -24 0
25 -21 0
21 -25 0
26 -27 0
26 -28 0
26 -29 0
26 -30 0
26 -31 0
26 -32 0
26 -33 0
34 0
35 -26 0
26 -35 0
-28 36 0
-29 36 0
-30 36 0
-31 36 0
-32 36 0
-33 36 0
37 0
38 -36 0
36 -38 0
-29 39 0
-30 39 0
-31 39 0
-32 39 0
-33 39 0
29 30 31 32 33 -39 0
40 -39 0
39 -40 0
-30 41 0
-31 41 0
-32 41 0
-33 41 0
30 31 32 33 -41 0
42 -41 0
41 -42 0
43 -41 0
41 -43 0
44 -41 0
41 -44 0
45 -41 0
41 -45 0
46 -47 0
46 -48 0
46 -49 0
47 48 49 -46 0
50 -46 0
46 -50 0
-48 51 0
-49 51 0
48 49 -51 0
52 -51 0
51 -52 0
53 -49 0
49 -53 0
54 -55 0
54 -56 0
54 -57 0
54 -58 0
54 -59 0
55 56 57 58 59 -54 0
60 -54 0
54 -60 0
-56 61 0
-57 61 0
-58 61 0
-59 61 0
56 57 58 59 -61 0
62 -61 0
61 -62 0
-57 63 0
-58 63 0
-59 63 0
57 58 59 -63 0
64 -63 0
63 -64 0
65 -63 0
63 -65 0
66 -63 0
63 -66 0
67 -68 0
67 -69 0
67 -70 0
67 -71 0
67 -72 0
67 -73 0
74 0
75 -67 0
67 -75 0
-69 76 0
-70 76 0
-71 76 0
-72 76 0
-73 76 0
69 70 71 72 73 -76 0
77 -76 0
76 -77 0
-70 78 0
-71 78 0
-72 78 0
-73 78 0
70 71 72 73 -78 0
79 -78 0
78 -79 0
-71 80 0
-72 80 0
-73 80 0
71 72 73 -80 0
81 -80 0
80 -81 0
-72 82 0
-73 82 0
72 73 -82 0
83 -82 0
82 -83 0
84 -82 0
82 -84 0
85 -86 0
85 -87 0
85 -88 0
85 -89 0
85 -90 0
86 87 88 89 90 -85 0
91 -85 0
85 -91 0
-87 92 0
-88 92 0
-89 92 0
-90 92 0
87 88 89 90 -92 0
93 -92 0
92 -93 0
94 -92 0
92 -94 0
95 -92 0
92 -95 0
96 -92 0
92 -96 0
97 -98 0
97 -99 0
97 -100 0
97 -101 0
97 -102 0
98 99 100 101 102 -97 0
103 -97 0
97 -103 0
-99 104 0
-100 104 0
-101 104 0
-102 104 0
99 100 101 102 -104 0
105 -104 0
104 -105 0
-100 106 0
-101 106 0
-102 106 0
100 101 102 -106 0
107 -106 0
106 -107 0
108 -106 0
106 -108 0
109 -106 0
106 -109 0
110 -111 0
110 -112 0
110 -113 0
110 -114 0
110 -115 0
110 -116 0
110 -117 0
118 0
119 -110 0
110 -119 0
-112 120 0
-113 120 0
-114 120 0
-115 120 0
-116 120 0
-117 120 0
121 0
122 -120 0
120 -122 0
-113 123 0
-114 123 0
-115 123 0
-116 123 0
-117 123 0
113 114 115 116 117 -123 0
124 -123 0
123 -124 0
-114 125 0
-115 125 0
-116 125 0
-117 125 0
114 115 116 117 -125 0
126 -125 0
125 -126 0
-115 127 0
-116 127 0
-117 127 0
115 116 117 -127 0
128 -127 0
127 -128 0
129 -127 0
127 -129 0
130 -127 0
127 -130 0
131 -132 0
131 -133 0
131 -134 0
131 -135 0
131 -136 0
132 133 134 135 136 -131 0
137 -131 0
131 -137 0
-133 138 0
-134 138 0
-135 138 0
-136 138 0
133 134 135 136 -138 0
139 -138 0
138 -139 0
-134 140 0
-135 140 0
-136 140 0
134 135 136 -140 0
141 -140 0
140 -141 0
-135 142 0
-136 142 0
135 136 -142 0
143 -142 0
142 -143 0
144 -142 0
142 -144 0
145 -146 0
146 -145 0
147 -148 0
148 -147 0
149 -150 0
150 -149 0
151 -152 0
152 -151 0
153 -154 0
154 -153 0
155 -156 0
156 -155 0
157 -158 0
158 -157 0
159 -160 0
160 -159 0
161 -162 0
162 -161 0
163 -164 0
164 -163 0
4 0
15 0
35 0
50 0
60 0
75 0
91 0
103 0
119 0
137 0
-145 0
-147 0
-149 0
-151 0
-153 0
-155 0
-157 0
-159 0
-161 0
-163 0
2 -72 0
72 -2 0
3 -73 0
73 -3 0
2 -136 0
136 -2 0
3 -135 0
135 -3 0
29 -86 0
86 -29 0
30 -87 0
87 -30 0
31 -88 0
88 -31 0
32 -89 0
89 -32 0
33 -90 0
90 -33 0
49 -146 0
146 -49 0
49 -148 0
148 -49 0
49 -150 0
150 -49 0
49 -152 0
152 -49 0
49 -154 0
154 -49 0
49 -156 0
156 -49 0
49 -158 0
158 -49 0
49 -160 0
160 -49 0
49 -162 0
162 -49 0
49 -164 0
164 -49 0
55 -98 0
98 -55 0
56 -99 0
99 -56 0
57 -100 0
100 -57 0
58 -101 0
101 -58 0
59 -102 0
102 -59 0
57 -116 0
116 -57 0
58 -117 0
117 -58 0
59 -115 0
115 -59 0
72 -136 0
136 -72 0
73 -135 0
135 -73 0
100 -116 0
116 -100 0
101 -117 0
117 -101 0
102 -115 0
115 -102 0
146 -148 0
148 -146 0
146 -150 0
150 -146 0
146 -152 0
152 -146 0
146 -154 0
154 -146 0
146 -156 0
156 -146 0
146 -158 0
158 -146 0
146 -160 0
160 -146 0
146 -162 0
162 -146 0
146 -164 0
164 -146 0
148 -150 0
150 -148 0
148 -152 0
152 -148 0
148 -154 0
154 -148 0
148 -156 0
156 -148 0
148 -158 0
158 -148 0
148 -160 0
160 -148 0
148 -162 0
162 -148 0
148 -164 0
164 -148 0
150 -152 0
152 -150 0
150 -154 0
154 -150 0
150 -156 0
156 -150 0
150 -158 0
158 -150 0
150 -160 0
160 -150 0
150 -162 0
162 -150 0
150 -164 0
164 -150 0
152 -154 0
154 -152 0
152 -156 0
156 -152 0
152 -158 0
158 -152 0
152 -160 0
160 -152 0
152 -162 0
162 -152 0
152 -164 0
164 -152 0
154 -156 0
156 -154 0
154 -158 0
158 -154 0
154 -160 0
160 -154 0
154 -162 0
162 -154 0
154 -164 0
164 -154 0
156 -158 0
158 -156 0
156 -160 0
160 -156 0
156 -162 0
162 -156 0
156 -164 0
164 -156 0
158 -160 0
160 -158 0
158 -162 0
162 -158 0
158 -164 0
164 -158 0
160 -162 0
162 -160 0
160 -164 0
164 -160 0
162 -164 0
164 -162 0
